(declare-const r Relation)
(declare-fun p1 (World) Bool)
(declare-fun p2 (World) Bool)
(declare-fun p3 (World) Bool)
(declare-fun p4 (World) Bool)
(declare-fun p5 (World) Bool)
(declare-fun p6 (World) Bool)
(declare-fun p7 (World) Bool)
(declare-fun p8 (World) Bool)
(declare-fun p9 (World) Bool)
(declare-fun p10 (World) Bool)
(declare-fun p11 (World) Bool)
(declare-fun p12 (World) Bool)
(declare-fun p13 (World) Bool)
(declare-fun p14 (World) Bool)
(declare-fun p15 (World) Bool)
(declare-fun p16 (World) Bool)
(declare-fun p17 (World) Bool)
(declare-fun p18 (World) Bool)
(declare-fun p19 (World) Bool)
(declare-fun p20 (World) Bool)
(declare-fun p21 (World) Bool)
(declare-fun p22 (World) Bool)
(declare-fun p23 (World) Bool)
(declare-fun p24 (World) Bool)
(declare-fun p25 (World) Bool)
(declare-fun p26 (World) Bool)
(declare-fun p27 (World) Bool)
(declare-fun p28 (World) Bool)
(declare-fun p29 (World) Bool)
(declare-fun p30 (World) Bool)
(declare-fun p31 (World) Bool)
(declare-fun p32 (World) Bool)
(declare-fun p33 (World) Bool)
(declare-fun p34 (World) Bool)
(declare-fun p35 (World) Bool)
(declare-fun p36 (World) Bool)
(declare-fun p37 (World) Bool)
(declare-fun p38 (World) Bool)
(declare-fun p39 (World) Bool)
(declare-fun p40 (World) Bool)
(declare-fun p41 (World) Bool)
(declare-fun p42 (World) Bool)
(declare-fun p44 (World) Bool)
(declare-fun p46 (World) Bool)
(declare-fun p48 (World) Bool)
(declare-fun p50 (World) Bool)
(declare-fun p52 (World) Bool)
(declare-fun p54 (World) Bool)
(declare-fun p56 (World) Bool)
(declare-fun p58 (World) Bool)
(declare-fun p60 (World) Bool)
(declare-fun p62 (World) Bool)
(declare-fun p64 (World) Bool)
(declare-fun p66 (World) Bool)
(declare-fun p68 (World) Bool)
(declare-fun p70 (World) Bool)
(declare-fun p72 (World) Bool)
(declare-fun p74 (World) Bool)
(declare-fun p76 (World) Bool)
(declare-fun p78 (World) Bool)
(declare-fun p80 (World) Bool)
(declare-fun p82 (World) Bool)
(assert (not (or (or (box r (box r (box r (box r (box r (box r (box r (box r (box r (box r (box r (box r (box r (box r (box r (box r (box r (box r (box r (box r (box r (box r (box r (box r (box r (box r (box r (box r (box r (box r (box r (box r (box r (box r (box r (box r (box r (box r (box r (box r (box r (and (and (and (and (and (and (and (and (and (and (and (and (and (and (and (and (and (and (and (and (and (and (and (and (and (and (and (and (and (and (and (and (and (and (and (and (and (and (and (and (p1 world) (p2 world)) (p3 world)) (p4 world)) (p5 world)) (p6 world)) (p7 world)) (p8 world)) (p9 world)) (p10 world)) (p11 world)) (p12 world)) (p13 world)) (p14 world)) (p15 world)) (p16 world)) (p17 world)) (p18 world)) (p19 world)) (p20 world)) (p21 world)) (p22 world)) (p23 world)) (p24 world)) (p25 world)) (p26 world)) (p27 world)) (p28 world)) (p29 world)) (p30 world)) (p31 world)) (p32 world)) (p33 world)) (p34 world)) (p35 world)) (p36 world)) (p37 world)) (p38 world)) (p39 world)) (p40 world)) (p41 world))))))))))))))))))))))))))))))))))))))))))) (or (dia r (or (or (dia r (or (or (dia r (or (or (dia r (or (or (dia r (or (or (dia r (or (or (dia r (or (or (dia r (or (or (dia r (or (or (dia r (or (or (dia r (or (or (dia r (or (or (dia r (or (or (dia r (or (or (dia r (or (or (dia r (or (or (dia r (or (or (dia r (or (or (dia r (or (or (dia r (or (or (dia r (or (or (dia r (or (or (dia r (or (or (dia r (or (or (dia r (or (or (dia r (or (or (dia r (or (or (dia r (or (or (dia r (or (or (dia r (or (or (dia r (or (or (dia r (or (or (dia r (or (or (dia r (or (or (dia r (or (or (dia r (or (or (dia r (or (or (dia r (or (or (dia r (or (or (dia r (or false (dia r (= (p1 world) (p2 world))))) (box r (p3 world))) (dia r (dia r (= (p2 world) (p3 world)))))) (box r (p4 world))) (dia r (dia r (dia r (= (p3 world) (p4 world))))))) (box r (p5 world))) (dia r (dia r (dia r (dia r (= (p4 world) (p5 world)))))))) (box r (p6 world))) (dia r (dia r (dia r (dia r (dia r (= (p5 world) (p6 world))))))))) (box r (p7 world))) (dia r (dia r (dia r (dia r (dia r (dia r (= (p6 world) (p7 world)))))))))) (box r (p8 world))) (dia r (dia r (dia r (dia r (dia r (dia r (dia r (= (p7 world) (p8 world))))))))))) (box r (p9 world))) (dia r (dia r (dia r (dia r (dia r (dia r (dia r (dia r (= (p8 world) (p9 world)))))))))))) (box r (p10 world))) (dia r (dia r (dia r (dia r (dia r (dia r (dia r (dia r (dia r (= (p9 world) (p10 world))))))))))))) (box r (p11 world))) (dia r (dia r (dia r (dia r (dia r (dia r (dia r (dia r (dia r (dia r (= (p10 world) (p11 world)))))))))))))) (box r (p12 world))) (dia r (dia r (dia r (dia r (dia r (dia r (dia r (dia r (dia r (dia r (dia r (= (p11 world) (p12 world))))))))))))))) (box r (p13 world))) (dia r (dia r (dia r (dia r (dia r (dia r (dia r (dia r (dia r (dia r (dia r (dia r (= (p12 world) (p13 world)))))))))))))))) (box r (p14 world))) (dia r (dia r (dia r (dia r (dia r (dia r (dia r (dia r (dia r (dia r (dia r (dia r (dia r (= (p13 world) (p14 world))))))))))))))))) (box r (p15 world))) (dia r (dia r (dia r (dia r (dia r (dia r (dia r (dia r (dia r (dia r (dia r (dia r (dia r (dia r (= (p14 world) (p15 world)))))))))))))))))) (box r (p16 world))) (dia r (dia r (dia r (dia r (dia r (dia r (dia r (dia r (dia r (dia r (dia r (dia r (dia r (dia r (dia r (= (p15 world) (p16 world))))))))))))))))))) (box r (p17 world))) (dia r (dia r (dia r (dia r (dia r (dia r (dia r (dia r (dia r (dia r (dia r (dia r (dia r (dia r (dia r (dia r (= (p16 world) (p17 world)))))))))))))))))))) (box r (p18 world))) (dia r (dia r (dia r (dia r (dia r (dia r (dia r (dia r (dia r (dia r (dia r (dia r (dia r (dia r (dia r (dia r (dia r (= (p17 world) (p18 world))))))))))))))))))))) (box r (p19 world))) (dia r (dia r (dia r (dia r (dia r (dia r (dia r (dia r (dia r (dia r (dia r (dia r (dia r (dia r (dia r (dia r (dia r (dia r (= (p18 world) (p19 world)))))))))))))))))))))) (box r (p20 world))) (dia r (dia r (dia r (dia r (dia r (dia r (dia r (dia r (dia r (dia r (dia r (dia r (dia r (dia r (dia r (dia r (dia r (dia r (dia r (= (p19 world) (p20 world))))))))))))))))))))))) (box r (p21 world))) (dia r (dia r (dia r (dia r (dia r (dia r (dia r (dia r (dia r (dia r (dia r (dia r (dia r (dia r (dia r (dia r (dia r (dia r (dia r (dia r (= (p20 world) (p21 world)))))))))))))))))))))))) (box r (p22 world))) (dia r (dia r (dia r (dia r (dia r (dia r (dia r (dia r (dia r (dia r (dia r (dia r (dia r (dia r (dia r (dia r (dia r (dia r (dia r (dia r (dia r (= (p21 world) (p22 world))))))))))))))))))))))))) (box r (p23 world))) (dia r (dia r (dia r (dia r (dia r (dia r (dia r (dia r (dia r (dia r (dia r (dia r (dia r (dia r (dia r (dia r (dia r (dia r (dia r (dia r (dia r (dia r (= (p22 world) (p23 world)))))))))))))))))))))))))) (box r (p24 world))) (dia r (dia r (dia r (dia r (dia r (dia r (dia r (dia r (dia r (dia r (dia r (dia r (dia r (dia r (dia r (dia r (dia r (dia r (dia r (dia r (dia r (dia r (dia r (= (p23 world) (p24 world))))))))))))))))))))))))))) (box r (p25 world))) (dia r (dia r (dia r (dia r (dia r (dia r (dia r (dia r (dia r (dia r (dia r (dia r (dia r (dia r (dia r (dia r (dia r (dia r (dia r (dia r (dia r (dia r (dia r (dia r (= (p24 world) (p25 world)))))))))))))))))))))))))))) (box r (p26 world))) (dia r (dia r (dia r (dia r (dia r (dia r (dia r (dia r (dia r (dia r (dia r (dia r (dia r (dia r (dia r (dia r (dia r (dia r (dia r (dia r (dia r (dia r (dia r (dia r (dia r (= (p25 world) (p26 world))))))))))))))))))))))))))))) (box r (p27 world))) (dia r (dia r (dia r (dia r (dia r (dia r (dia r (dia r (dia r (dia r (dia r (dia r (dia r (dia r (dia r (dia r (dia r (dia r (dia r (dia r (dia r (dia r (dia r (dia r (dia r (dia r (= (p26 world) (p27 world)))))))))))))))))))))))))))))) (box r (p28 world))) (dia r (dia r (dia r (dia r (dia r (dia r (dia r (dia r (dia r (dia r (dia r (dia r (dia r (dia r (dia r (dia r (dia r (dia r (dia r (dia r (dia r (dia r (dia r (dia r (dia r (dia r (dia r (= (p27 world) (p28 world))))))))))))))))))))))))))))))) (box r (p29 world))) (dia r (dia r (dia r (dia r (dia r (dia r (dia r (dia r (dia r (dia r (dia r (dia r (dia r (dia r (dia r (dia r (dia r (dia r (dia r (dia r (dia r (dia r (dia r (dia r (dia r (dia r (dia r (dia r (= (p28 world) (p29 world)))))))))))))))))))))))))))))))) (box r (p30 world))) (dia r (dia r (dia r (dia r (dia r (dia r (dia r (dia r (dia r (dia r (dia r (dia r (dia r (dia r (dia r (dia r (dia r (dia r (dia r (dia r (dia r (dia r (dia r (dia r (dia r (dia r (dia r (dia r (dia r (= (p29 world) (p30 world))))))))))))))))))))))))))))))))) (box r (p31 world))) (dia r (dia r (dia r (dia r (dia r (dia r (dia r (dia r (dia r (dia r (dia r (dia r (dia r (dia r (dia r (dia r (dia r (dia r (dia r (dia r (dia r (dia r (dia r (dia r (dia r (dia r (dia r (dia r (dia r (dia r (= (p30 world) (p31 world)))))))))))))))))))))))))))))))))) (box r (p32 world))) (dia r (dia r (dia r (dia r (dia r (dia r (dia r (dia r (dia r (dia r (dia r (dia r (dia r (dia r (dia r (dia r (dia r (dia r (dia r (dia r (dia r (dia r (dia r (dia r (dia r (dia r (dia r (dia r (dia r (dia r (dia r (= (p31 world) (p32 world))))))))))))))))))))))))))))))))))) (box r (p33 world))) (dia r (dia r (dia r (dia r (dia r (dia r (dia r (dia r (dia r (dia r (dia r (dia r (dia r (dia r (dia r (dia r (dia r (dia r (dia r (dia r (dia r (dia r (dia r (dia r (dia r (dia r (dia r (dia r (dia r (dia r (dia r (dia r (= (p32 world) (p33 world)))))))))))))))))))))))))))))))))))) (box r (p34 world))) (dia r (dia r (dia r (dia r (dia r (dia r (dia r (dia r (dia r (dia r (dia r (dia r (dia r (dia r (dia r (dia r (dia r (dia r (dia r (dia r (dia r (dia r (dia r (dia r (dia r (dia r (dia r (dia r (dia r (dia r (dia r (dia r (dia r (= (p33 world) (p34 world))))))))))))))))))))))))))))))))))))) (box r (p35 world))) (dia r (dia r (dia r (dia r (dia r (dia r (dia r (dia r (dia r (dia r (dia r (dia r (dia r (dia r (dia r (dia r (dia r (dia r (dia r (dia r (dia r (dia r (dia r (dia r (dia r (dia r (dia r (dia r (dia r (dia r (dia r (dia r (dia r (dia r (= (p34 world) (p35 world)))))))))))))))))))))))))))))))))))))) (box r (p36 world))) (dia r (dia r (dia r (dia r (dia r (dia r (dia r (dia r (dia r (dia r (dia r (dia r (dia r (dia r (dia r (dia r (dia r (dia r (dia r (dia r (dia r (dia r (dia r (dia r (dia r (dia r (dia r (dia r (dia r (dia r (dia r (dia r (dia r (dia r (dia r (= (p35 world) (p36 world))))))))))))))))))))))))))))))))))))))) (box r (p37 world))) (dia r (dia r (dia r (dia r (dia r (dia r (dia r (dia r (dia r (dia r (dia r (dia r (dia r (dia r (dia r (dia r (dia r (dia r (dia r (dia r (dia r (dia r (dia r (dia r (dia r (dia r (dia r (dia r (dia r (dia r (dia r (dia r (dia r (dia r (dia r (dia r (= (p36 world) (p37 world)))))))))))))))))))))))))))))))))))))))) (box r (p38 world))) (dia r (dia r (dia r (dia r (dia r (dia r (dia r (dia r (dia r (dia r (dia r (dia r (dia r (dia r (dia r (dia r (dia r (dia r (dia r (dia r (dia r (dia r (dia r (dia r (dia r (dia r (dia r (dia r (dia r (dia r (dia r (dia r (dia r (dia r (dia r (dia r (dia r (= (p37 world) (p38 world))))))))))))))))))))))))))))))))))))))))) (box r (p39 world))) (dia r (dia r (dia r (dia r (dia r (dia r (dia r (dia r (dia r (dia r (dia r (dia r (dia r (dia r (dia r (dia r (dia r (dia r (dia r (dia r (dia r (dia r (dia r (dia r (dia r (dia r (dia r (dia r (dia r (dia r (dia r (dia r (dia r (dia r (dia r (dia r (dia r (dia r (= (p38 world) (p39 world)))))))))))))))))))))))))))))))))))))))))) (box r (p40 world))) (dia r (dia r (dia r (dia r (dia r (dia r (dia r (dia r (dia r (dia r (dia r (dia r (dia r (dia r (dia r (dia r (dia r (dia r (dia r (dia r (dia r (dia r (dia r (dia r (dia r (dia r (dia r (dia r (dia r (dia r (dia r (dia r (dia r (dia r (dia r (dia r (dia r (dia r (dia r (= (p39 world) (p40 world))))))))))))))))))))))))))))))))))))))))))) (box r (p41 world))) (dia r (dia r (dia r (dia r (dia r (dia r (dia r (dia r (dia r (dia r (dia r (dia r (dia r (dia r (dia r (dia r (dia r (dia r (dia r (dia r (dia r (dia r (dia r (dia r (dia r (dia r (dia r (dia r (dia r (dia r (dia r (dia r (dia r (dia r (dia r (dia r (dia r (dia r (dia r (dia r (= (p40 world) (p1 world)))))))))))))))))))))))))))))))))))))))))))) (box r (p42 world)))) (box r (box r (box r (box r (box r (box r (box r (box r (box r (box r (box r (box r (box r (box r (box r (box r (box r (box r (box r (box r (box r (box r (box r (box r (box r (box r (box r (box r (box r (box r (box r (box r (box r (box r (box r (box r (box r (box r (box r (box r (box r (and (and (and (and (and (and (and (and (and (and (and (and (and (and (and (and (and (and (and (and (and (and (and (and (and (and (and (and (and (and (and (and (and (and (and (and (and (and (and (and (not (p2 world)) (not (p4 world))) (not (p6 world))) (not (p8 world))) (not (p10 world))) (not (p12 world))) (not (p14 world))) (not (p16 world))) (not (p18 world))) (not (p20 world))) (not (p22 world))) (not (p24 world))) (not (p26 world))) (not (p28 world))) (not (p30 world))) (not (p32 world))) (not (p34 world))) (not (p36 world))) (not (p38 world))) (not (p40 world))) (not (p42 world))) (not (p44 world))) (not (p46 world))) (not (p48 world))) (not (p50 world))) (not (p52 world))) (not (p54 world))) (not (p56 world))) (not (p58 world))) (not (p60 world))) (not (p62 world))) (not (p64 world))) (not (p66 world))) (not (p68 world))) (not (p70 world))) (not (p72 world))) (not (p74 world))) (not (p76 world))) (not (p78 world))) (not (p80 world))) (not (p82 world)))))))))))))))))))))))))))))))))))))))))))))))
